81 83 15 58 26 23 
43 13 71 38 39 36 
98 63 54 82 61 6 
55 31 62 28 
17 8 92 30 45 68 50 
87 78 27 93 77 66 
57 86 74 84 73 48 51 69 
3 18 19 44 46 88 12 2 
20 33 94 56 9 4 89 52 75 
24 42 25 37 16 14 100 99 21 47 
67 95 35 85 97 91 49 
5 41 76 70 79 34 22 
65 7 53 72 64 80 
90 32 40 10 11 60 59 1 
96 29 

